NAME = SAfile175,
TOURSIZE = 175,
LENGTH = 21432,
99,140,153,70,149,24,173,11,59,128,66,10,77,122,33,18,164,126,165,22,121,54,95,143,130,34,78,162,174,4,109,20,43,115,138,52,96,145,63,141,152,88,135,94,90,158,111,76,86,56,30,3,142,60,175,124,8,57,155,125,129,55,106,51,107,12,40,27,1,73,101,131,61,79,156,98,67,35,163,117,14,150,147,169,28,168,23,65,100,160,58,6,42,16,146,83,2,137,17,110,171,119,46,89,148,49,118,72,26,5,39,120,19,93,69,31,114,48,92,170,53,64,159,105,50,103,167,123,102,144,80,172,32,157,82,47,44,97,136,161,37,38,113,74,7,87,154,166,45,9,15,62,139,25,116,133,29,68,75,108,127,13,84,85,104,151,112,81,71,91,134,41,21,36,132